Problem:    
Rows:       113
Columns:    45 (34 integer, 34 binary)
Non-zeros:  356
Status:     INTEGER OPTIMAL
Objective:  value = 21.016863 (MINimum)

   No.   Row name        Activity     Lower bound   Upper bound
------ ------------    ------------- ------------- -------------
     1 r.5                   1021.02             0               
     2 r.6                  -994.905      -998.134               
     3 r.7                   21.0169             0               
     4 r.8                   21.0169      -995.662               
     5 r.9                   1021.02             0               
     6 r.10                 -978.983      -987.316               
     7 r.11                  21.0169             0               
     8 r.12                  21.0169       -981.09               
     9 r.13                  1021.02             0               
    10 r.14                 -991.667      -996.763               
    11 r.15                  21.0169             0               
    12 r.16                  21.0169      -993.327               
    13 r.17                  21.0169             0               
    14 r.18                  21.0169      -994.239               
    15 r.19                  1021.02             0               
    16 r.20                 -978.983      -988.516               
    17 r.21                  1021.02             0               
    18 r.22                 -999.244      -999.244               
    19 r.23                  21.0169             0               
    20 r.24                  5.18287      -997.934               
    21 r.25                        1             1             = 
    22 r.26                        1             1             = 
    23 r.27                        1             1             = 
    24 r.28                        1             1             = 
    25 r.29                        1             1             = 
    26 r.30                        2             2               
    27 r.31                       -2         -1001               
    28 r.32                 -984.079      -987.316               
    29 r.33                     1000             2               
    30 r.34                    -1000         -1001               
    31 r.35                     2000       -981.09               
    32 r.36                        2             2               
    33 r.37                       -2         -1001               
    34 r.38                 -996.763      -996.763               
    35 r.39                     1000             2               
    36 r.40                    -1000         -1001               
    37 r.41                     2000      -993.327               
    38 r.42                     1001             2               
    39 r.43                    -1001         -1001               
    40 r.44                  2015.92      -994.239               
    41 r.45                     1001             2               
    42 r.46                    -1001         -1001               
    43 r.47                     2000      -988.516               
    44 r.48                 -998.134      -998.134               
    45 r.49                  17.7872      -995.662               
    46 r.50                 -998.134      -998.134               
    47 r.51                  17.7872      -995.662               
    48 r.52                        2             2               
    49 r.53                       -2         -1001               
    50 r.54                  984.079        1.8658               
    51 r.55                     1000             2               
    52 r.56                    -1000         -1001               
    53 r.57                     2000        4.3382               
    54 r.58                        2             2               
    55 r.59                       -2         -1001               
    56 r.60                 -12.6841      -996.763               
    57 r.61                     1000             2               
    58 r.62                    -1000         -1001               
    59 r.63                     2000      -993.327               
    60 r.64                     1001             2               
    61 r.65                    -1001         -1001               
    62 r.66                     1000      -994.239               
    63 r.67                     1001             2               
    64 r.68                    -1001         -1001               
    65 r.69                     2000      -988.516               
    66 r.70                 -982.213      -987.316               
    67 r.71                  17.7872       -981.09               
    68 r.72                 -982.213      -987.316               
    69 r.73                  17.7872       -981.09               
    70 r.74                        2             2               
    71 r.75                       -2         -1001               
    72 r.76                  996.763        1.8658               
    73 r.77                     1000             2               
    74 r.78                    -1000         -1001               
    75 r.79                     2000        4.3382               
    76 r.80                        2             2               
    77 r.81                       -2         -1001               
    78 r.82                  12.6841       12.6841               
    79 r.83                     1000             2               
    80 r.84                    -1000         -1001               
    81 r.85                     2000         18.91               
    82 r.86                     1001             2               
    83 r.87                    -1001         -1001               
    84 r.88                  2012.68      -994.239               
    85 r.89                     1001             2               
    86 r.90                    -1001         -1001               
    87 r.91                     2000      -988.516               
    88 r.92                 -994.897      -996.763               
    89 r.93                  17.7872      -993.327               
    90 r.94                 -994.897      -996.763               
    91 r.95                  17.7872      -993.327               
    92 r.96                     1001             2               
    93 r.97                    -1001         -1001               
    94 r.98                  1984.08        1.8658               
    95 r.99                     1001             2               
    96 r.100                   -1001         -1001               
    97 r.101                    2000        4.3382               
    98 r.102                    1001             2               
    99 r.103                   -1001         -1001               
   100 r.104                    3000       12.6841               
   101 r.105                    1001             2               
   102 r.106                   -1001         -1001               
   103 r.107                    2000         18.91               
   104 r.108                    1001             2               
   105 r.109                   -1001         -1001               
   106 r.110                 1987.32        3.2373               
   107 r.111                    1001             2               
   108 r.112                   -1001         -1001               
   109 r.113                    2000        6.6733               
   110 r.114                 17.7872      -994.239               
   111 r.115                -982.213      -988.516               
   112 r.116                 17.7872      -994.239               
   113 r.117                -982.213      -988.516               

   No. Column name       Activity     Lower bound   Upper bound
------ ------------    ------------- ------------- -------------
     1 tt                    21.0169             0               
     2 s_1_1        *              1             0             1 
     3 t_1_1                 15.9214             0               
     4 s_2_1        *              0             0             1 
     5 t_2_1                       0             0               
     6 s_1_2        *              1             0             1 
     7 t_1_2                       0             0               
     8 s_2_2        *              0             0             1 
     9 t_2_2                       0             0               
    10 s_1_3        *              1             0             1 
    11 t_1_3                 12.6841             0               
    12 s_2_3        *              0             0             1 
    13 t_2_3                       0             0               
    14 s_1_4        *              0             0             1 
    15 t_1_4                       0             0               
    16 s_2_4        *              1             0             1 
    17 t_2_4                       0             0               
    18 s_1_5        *              1             0             1 
    19 t_1_5                 17.7872             0               
    20 s_2_5        *              0             0             1 
    21 t_2_5                 17.7872             0               
    22 r_1_1_2      *              0             0             1 
    23 u_1_1_2      *              1             0             1 
    24 r_2_1_2      *              1             0             1 
    25 u_2_1_2      *              0             0             1 
    26 r_1_1_3      *              0             0             1 
    27 u_1_1_3      *              1             0             1 
    28 r_2_1_3      *              1             0             1 
    29 u_2_1_3      *              0             0             1 
    30 r_1_1_4      *              1             0             1 
    31 u_1_1_4      *              0             0             1 
    32 r_2_1_4      *              1             0             1 
    33 u_2_1_4      *              0             0             1 
    34 r_1_2_3      *              0             0             1 
    35 u_1_2_3      *              0             0             1 
    36 r_2_2_3      *              1             0             1 
    37 u_2_2_3      *              0             0             1 
    38 r_1_2_4      *              1             0             1 
    39 u_1_2_4      *              1             0             1 
    40 r_2_2_4      *              1             0             1 
    41 u_2_2_4      *              0             0             1 
    42 r_1_3_4      *              1             0             1 
    43 u_1_3_4      *              0             0             1 
    44 r_2_3_4      *              1             0             1 
    45 u_2_3_4      *              0             0             1 

Integer feasibility conditions:

KKT.PE: max.abs.err = 0.00e+00 on row 0
        max.rel.err = 0.00e+00 on row 0
        High quality

KKT.PB: max.abs.err = 0.00e+00 on row 0
        max.rel.err = 0.00e+00 on row 0
        High quality

End of output
